(declare-fun p26 () Real)
	(declare-fun p27 () Real)
	(assert (<= 0 p26 ))
	(assert (<= p26 1 ))
	(assert (<= 0 p27 ))
	(assert (<= p27 1 ))
	(assert (<= 1 (+ (* 1 1) (* (- 1 1) 0))))
	(assert (<= 1 (+ (* (/  1 2) p26) (* (- 1 (/  1 2)) p27))))
	(assert (<= 1 (+ (* 1 p26) (* (- 1 1) 0))))
	(assert (<= 0 (+ (* 1 p27) (* (- 1 1) 0))))
	(check-sat)